<?xml version = "1.0" encoding="UTF-8" standalone="yes"?>
<CPLEXSolution version="1.2">
 <header
   problemName="inst_11"
   objectiveValue="533.17171717171721"
   solutionTypeValue="1"
   solutionTypeString="basic"
   solutionStatusValue="1"
   solutionStatusString="optimal"
   solutionMethodString="dual"
   primalFeasible="1"
   dualFeasible="1"
   simplexIterations="1"
   writeLevel="1"/>
 <quality
   epRHS="9.9999999999999995e-07"
   epOpt="9.9999999999999995e-07"
   maxPrimalInfeas="0"
   maxDualInfeas="0"
   maxPrimalResidual="2.8421709430404007e-14"
   maxDualResidual="0"
   maxX="1"
   maxPi="0.71717171717171724"
   maxSlack="412.94949494949498"
   maxRedCost="87.282828282828277"
   kappa="2.5160869364375467"/>
 <linearConstraints>
  <constraint name="c0" index="0" status="LL" slack="0" dual="0.71717171717171724"/>
  <constraint name="c1" index="1" status="BS" slack="170.18181818181819" dual="-0"/>
  <constraint name="c2" index="2" status="BS" slack="412.94949494949498" dual="-0"/>
 </linearConstraints>
 <variables>
  <variable name="x0" index="0" status="UL" value="1" reducedCost="26.838383838383834"/>
  <variable name="x1" index="1" status="UL" value="1" reducedCost="75.090909090909093"/>
  <variable name="x2" index="2" status="UL" value="1" reducedCost="1.7474747474747439"/>
  <variable name="x3" index="3" status="UL" value="1" reducedCost="64.181818181818187"/>
  <variable name="x4" index="4" status="UL" value="1" reducedCost="38.262626262626263"/>
  <variable name="x5" index="5" status="UL" value="1" reducedCost="87.282828282828277"/>
  <variable name="x6" index="6" status="BS" value="0.10101010101010102" reducedCost="0"/>
  <variable name="x7" index="7" status="UL" value="1" reducedCost="18.242424242424242"/>
  <variable name="x8" index="8" status="LL" value="0" reducedCost="-25.26262626262627"/>
  <variable name="x9" index="9" status="UL" value="1" reducedCost="25.020202020202021"/>
  <variable name="s0" index="10" status="LL" value="0" reducedCost="-0.71717171717171724"/>
  <variable name="s1" index="11" status="LL" value="0" reducedCost="0"/>
  <variable name="s2" index="12" status="LL" value="0" reducedCost="0"/>
 </variables>
 <objectiveValues>
  <objective index="0" name="" value="533.17171717171709"/>
 </objectiveValues>
</CPLEXSolution>
